\ Model Cl_30_Ins_2.lp
\ LP format - for model browsing. Use MPS format to capture full model detail.
Maximize
 
Subject To
 obj1: y[0] = 0
 obj2: y[1] = 0
 obj1_Exp: - y[0] + 89 x[0] + 87 x[1] + 83 x[2] + 81 x[3] + 79 x[4]
   + 76 x[5] + 74 x[6] + 67 x[7] + 66 x[8] + 63 x[9] + 62 x[10] + 60 x[11]
   + 59 x[12] + 56 x[13] + 55 x[14] + 44 x[15] + 38 x[16] + 37 x[17]
   + 34 x[18] + 32 x[19] + 29 x[20] + 25 x[21] + 25 x[22] + 22 x[23]
   + 16 x[24] + 8 x[25] + 5 x[26] + x[27] + x[28] + x[29] = 0
 obj2_Exp: - y[1] + 17 x[0] + 41 x[1] + 30 x[2] + 28 x[3] + 69 x[4]
   + 29 x[5] + 63 x[6] + 92 x[7] + 92 x[8] + 45 x[9] + 73 x[10] + 58 x[11]
   + 35 x[12] + 6 x[13] + 88 x[14] + 58 x[15] + 88 x[16] + 66 x[17]
   + 71 x[18] + 49 x[19] + 88 x[20] + 50 x[21] + 37 x[22] + 14 x[23]
   + 49 x[24] + 47 x[25] + 50 x[26] + 64 x[27] + 6 x[28] + 43 x[29] = 0
 Budget: 99 x[0] + 97 x[1] + 93 x[2] + 91 x[3] + 89 x[4] + 86 x[5]
   + 84 x[6] + 77 x[7] + 76 x[8] + 73 x[9] + 72 x[10] + 70 x[11] + 69 x[12]
   + 66 x[13] + 65 x[14] + 54 x[15] + 48 x[16] + 47 x[17] + 44 x[18]
   + 42 x[19] + 39 x[20] + 35 x[21] + 35 x[22] + 32 x[23] + 26 x[24]
   + 18 x[25] + 15 x[26] + 11 x[27] + 11 x[28] + 11 x[29] <= 689
Bounds
Binaries
 x[0] x[1] x[2] x[3] x[4] x[5] x[6] x[7] x[8] x[9] x[10] x[11] x[12] x[13]
 x[14] x[15] x[16] x[17] x[18] x[19] x[20] x[21] x[22] x[23] x[24] x[25]
 x[26] x[27] x[28] x[29]
Generals
 y[0] y[1]
End
